TCS_Benchmarks/redos_fix/regexlib2_output_distinct_3655_3654_0_0.smt2
(set-logic QF_S)
(declare-const x String)
(assert (str.in.re x (re.inter  (re.++  (re.union  (re.++ (re.range "\u{30}" "\u{39}") (re.++ (re.range "\u{30}" "\u{39}") (re.++ (re.range "\u{30}" "\u{39}") (re.++ (re.range "\u{30}" "\u{39}") (re.range "\u{30}" "\u{39}")))))  (re.++ (re.range "\u{30}" "\u{39}")   (re.++ (re.range "\u{30}" "\u{39}") (re.++ (re.range "\u{30}" "\u{39}") (re.++ (re.range "\u{30}" "\u{39}") (re.++ (re.range "\u{30}" "\u{39}") (re.range "\u{30}" "\u{39}")))))))  (re.++ (re.range "\u{30}" "\u{39}") (re.++ (re.range "\u{30}" "\u{39}") (re.++ (re.range "\u{30}" "\u{39}") (re.++ (re.range "\u{30}" "\u{39}") (re.++ (re.range "\u{30}" "\u{39}") (re.++ (re.range "\u{30}" "\u{39}") (re.++ (re.range "\u{30}" "\u{39}") (re.range "\u{30}" "\u{39}")))))))))  (re.++  (re.union  (re.++ (re.range "\u{30}" "\u{39}") (re.++ (re.range "\u{30}" "\u{39}") (re.++ (re.range "\u{30}" "\u{39}") (re.++ (re.range "\u{30}" "\u{39}") (re.range "\u{30}" "\u{39}")))))  (re.++ (re.range "\u{30}" "\u{39}")   (re.++ (re.range "\u{30}" "\u{39}") (re.++ (re.range "\u{30}" "\u{39}") (re.++ (re.range "\u{30}" "\u{39}") (re.++ (re.range "\u{30}" "\u{39}") (re.range "\u{30}" "\u{39}"))))))) (re.++ (re.opt  (re.union  (str.to.re "\u{2f}")  (str.to.re "\u{2d}")) )  (re.++ (re.range "\u{30}" "\u{39}") (re.++ (re.range "\u{30}" "\u{39}") (re.++ (re.range "\u{30}" "\u{39}") (re.++ (re.range "\u{30}" "\u{39}") (re.++ (re.range "\u{30}" "\u{39}") (re.++ (re.range "\u{30}" "\u{39}") (re.++ (re.range "\u{30}" "\u{39}") (re.range "\u{30}" "\u{39}")))))))))) )))
(check-sat)
(get-model)