TCS_Benchmarks/redos_fix/regexlib2_output_distinct_3655_3654_0_0.txt
(\d{5,6})(\d{8})
(\d{5,6})((([\/\-])?))(\d{8})